*SENSE:Minimize
NAME          MODEL
ROWS
 N  OBJ
 L  C0000000
 L  C0000001
 L  C0000002
 L  C0000003
 L  C0000004
 L  C0000005
 L  C0000006
 L  C0000007
 L  C0000008
 L  C0000009
 L  C0000010
 L  C0000011
 G  C0000012
 G  C0000013
COLUMNS
    MARK      'MARKER'                 'INTORG'
    X0000000  C0000000   1.000000000000e+00
    X0000000  C0000012   1.000000000000e+00
    X0000000  C0000013   1.400000000000e+02
    MARK      'MARKER'                 'INTEND'
    MARK      'MARKER'                 'INTORG'
    X0000001  C0000001   1.000000000000e+00
    X0000001  C0000012   1.000000000000e+00
    X0000001  C0000013   1.400000000000e+02
    MARK      'MARKER'                 'INTEND'
    MARK      'MARKER'                 'INTORG'
    X0000002  C0000002   1.000000000000e+00
    X0000002  C0000012   1.000000000000e+00
    X0000002  C0000013   1.400000000000e+02
    MARK      'MARKER'                 'INTEND'
    MARK      'MARKER'                 'INTORG'
    X0000003  C0000003   1.000000000000e+00
    X0000003  C0000012   1.000000000000e+00
    X0000003  C0000013   1.400000000000e+02
    MARK      'MARKER'                 'INTEND'
    MARK      'MARKER'                 'INTORG'
    X0000004  C0000004   1.000000000000e+00
    X0000004  C0000012   1.000000000000e+00
    X0000004  C0000013   9.200000000000e+01
    MARK      'MARKER'                 'INTEND'
    MARK      'MARKER'                 'INTORG'
    X0000005  C0000005   1.000000000000e+00
    X0000005  C0000012   1.000000000000e+00
    X0000005  C0000013   9.200000000000e+01
    MARK      'MARKER'                 'INTEND'
    MARK      'MARKER'                 'INTORG'
    X0000006  C0000006   1.000000000000e+00
    X0000006  C0000012   1.000000000000e+00
    X0000006  C0000013   9.200000000000e+01
    MARK      'MARKER'                 'INTEND'
    MARK      'MARKER'                 'INTORG'
    X0000007  C0000007   1.000000000000e+00
    X0000007  C0000012   1.000000000000e+00
    X0000007  C0000013   9.200000000000e+01
    MARK      'MARKER'                 'INTEND'
    MARK      'MARKER'                 'INTORG'
    X0000008  C0000008   1.000000000000e+00
    X0000008  C0000012   1.000000000000e+00
    X0000008  C0000013   6.000000000000e+01
    MARK      'MARKER'                 'INTEND'
    MARK      'MARKER'                 'INTORG'
    X0000009  C0000009   1.000000000000e+00
    X0000009  C0000012   1.000000000000e+00
    X0000009  C0000013   6.000000000000e+01
    MARK      'MARKER'                 'INTEND'
    MARK      'MARKER'                 'INTORG'
    X0000010  C0000010   1.000000000000e+00
    X0000010  C0000012   1.000000000000e+00
    X0000010  C0000013   6.000000000000e+01
    MARK      'MARKER'                 'INTEND'
    MARK      'MARKER'                 'INTORG'
    X0000011  C0000011   1.000000000000e+00
    X0000011  C0000012   1.000000000000e+00
    X0000011  C0000013   6.000000000000e+01
    MARK      'MARKER'                 'INTEND'
    MARK      'MARKER'                 'INTORG'
    X0000012  C0000000  -3.374578177728e+00
    X0000012  OBJ        1.290000000000e+06
    MARK      'MARKER'                 'INTEND'
    MARK      'MARKER'                 'INTORG'
    X0000013  C0000001  -3.361344537815e+00
    X0000013  OBJ        1.454000000000e+06
    MARK      'MARKER'                 'INTEND'
    MARK      'MARKER'                 'INTORG'
    X0000014  C0000002  -3.367888748420e+00
    X0000014  OBJ        1.454000000000e+06
    MARK      'MARKER'                 'INTEND'
    MARK      'MARKER'                 'INTORG'
    X0000015  C0000003  -3.390894819466e+00
    X0000015  OBJ        1.290000000000e+06
    MARK      'MARKER'                 'INTEND'
    MARK      'MARKER'                 'INTORG'
    X0000016  C0000004  -3.374578177728e+00
    X0000016  OBJ        1.110000000000e+06
    MARK      'MARKER'                 'INTEND'
    MARK      'MARKER'                 'INTORG'
    X0000017  C0000005  -3.361344537815e+00
    X0000017  OBJ        1.274000000000e+06
    MARK      'MARKER'                 'INTEND'
    MARK      'MARKER'                 'INTORG'
    X0000018  C0000006  -3.367888748420e+00
    X0000018  OBJ        1.274000000000e+06
    MARK      'MARKER'                 'INTEND'
    MARK      'MARKER'                 'INTORG'
    X0000019  C0000007  -3.390894819466e+00
    X0000019  OBJ        1.110000000000e+06
    MARK      'MARKER'                 'INTEND'
    MARK      'MARKER'                 'INTORG'
    X0000020  C0000008  -3.374578177728e+00
    X0000020  OBJ        1.070000000000e+06
    MARK      'MARKER'                 'INTEND'
    MARK      'MARKER'                 'INTORG'
    X0000021  C0000009  -3.361344537815e+00
    X0000021  OBJ        1.234000000000e+06
    MARK      'MARKER'                 'INTEND'
    MARK      'MARKER'                 'INTORG'
    X0000022  C0000010  -3.367888748420e+00
    X0000022  OBJ        1.234000000000e+06
    MARK      'MARKER'                 'INTEND'
    MARK      'MARKER'                 'INTORG'
    X0000023  C0000011  -3.390894819466e+00
    X0000023  OBJ        1.070000000000e+06
    MARK      'MARKER'                 'INTEND'
RHS
    RHS       C0000000   0.000000000000e+00
    RHS       C0000001   0.000000000000e+00
    RHS       C0000002   0.000000000000e+00
    RHS       C0000003   0.000000000000e+00
    RHS       C0000004   0.000000000000e+00
    RHS       C0000005   0.000000000000e+00
    RHS       C0000006   0.000000000000e+00
    RHS       C0000007   0.000000000000e+00
    RHS       C0000008   0.000000000000e+00
    RHS       C0000009   0.000000000000e+00
    RHS       C0000010   0.000000000000e+00
    RHS       C0000011   0.000000000000e+00
    RHS       C0000012   1.200000000000e+01
    RHS       C0000013   1.600000000000e+03
BOUNDS
 LO BND       X0000000   0.000000000000e+00
 LO BND       X0000001   0.000000000000e+00
 LO BND       X0000002   0.000000000000e+00
 LO BND       X0000003   0.000000000000e+00
 LO BND       X0000004   0.000000000000e+00
 LO BND       X0000005   0.000000000000e+00
 LO BND       X0000006   0.000000000000e+00
 LO BND       X0000007   0.000000000000e+00
 LO BND       X0000008   0.000000000000e+00
 LO BND       X0000009   0.000000000000e+00
 LO BND       X0000010   0.000000000000e+00
 LO BND       X0000011   0.000000000000e+00
 LO BND       X0000012   0.000000000000e+00
 LO BND       X0000013   0.000000000000e+00
 LO BND       X0000014   0.000000000000e+00
 LO BND       X0000015   0.000000000000e+00
 LO BND       X0000016   0.000000000000e+00
 LO BND       X0000017   0.000000000000e+00
 LO BND       X0000018   0.000000000000e+00
 LO BND       X0000019   0.000000000000e+00
 LO BND       X0000020   0.000000000000e+00
 LO BND       X0000021   0.000000000000e+00
 LO BND       X0000022   0.000000000000e+00
 LO BND       X0000023   0.000000000000e+00
ENDATA
